
  32    1
  10

   0   0   4 2 3 4 5 
   1   1   4 11 9 8 7 
  10   1   3 10 9 6 
   6   4   5 15 12 11 10 9 
   5   1   3 11 9 7 
   7   5   4 15 14 12 11 
   2   2   4 17 15 14 12 
   6   3   4 17 16 14 13 
   8   1   3 16 14 13 
   5   2   3 16 14 13 
   6   3   3 19 17 16 
   8   2   2 16 13 
   6   4   4 23 20 19 18 
   4   1   4 25 21 20 19 
   5   2   4 25 21 20 18 
   4   2   4 25 24 21 20 
   2   2   3 25 23 18 
   3   3   3 26 24 22 
   4   1   3 26 24 22 
   5   1   3 29 28 26 
   6   1   1 22 
   4   2   3 29 28 27 
   7   1   3 31 29 26 
   1   2   2 31 27 
   1   2   2 30 28 
   4   1   1 27 
  10   2   1 30 
   8   1   1 31 
   6   2   1 30 
   9   4   1 32
   4   1   1 32
   0   0   0 
